unsat
(define-fun inv ((x Int) (y Int)) Bool (let ((_let_1 (* 1 y))) (and (= (+ _let_1 (* 0 y)) 0) (= (+ _let_1 (* 1 x)) 0))))
0.67user 0.00system 0:00.68elapsed 100%CPU (0avgtext+0avgdata 32488maxresident)k
0inputs+8outputs (0major+2791minor)pagefaults 0swaps
